1227136
1,82,45,90,24,109,10,66,77,9,37,26,38,41,31,72,57,75,86,27,69,70,14,39,47,71,99,105,93,96,87,62,19,73,76,50,18,7,88,65,60,42,106,108,78,33,55,12,36,28,8,40,68,13,21,48,80,17,53,100,102,54,58,104,97,91,89,11,49,64,22,15,23,79,67,4,92,74,56,103,30,6,95,32,61,85,43,44,20,63,3,83,25,16,107,94,81,2,51,84,59,46,29,52,34,101,98,35,5,1